param n:= 17;

set T:= 
1
2
3
4
5
6
7
8
9
10
11
12
13
14
15
16
17
;

set F:= 
100
120
140
160
180
200
A
B
C
E
;

set P:= 
1
2
3
4
5
6
7
;


set TF[1,1]:=
100
;

set TF[1,2]:=
180
;

set TF[1,3]:=
120
;

set TF[1,4]:=
160
;

set TF[1,5]:=
160
;

set TF[1,6]:=
200
;

set TF[1,7]:=
100
;

set TF[1,8]:=
120
;

set TF[1,9]:=
180
;

set TF[1,10]:=
140
;

set TF[1,11]:=
120
;

set TF[1,12]:=
140
;

set TF[1,13]:=
180
;

set TF[1,14]:=
140
;

set TF[1,15]:=
160
;

set TF[1,16]:=
200
;

set TF[1,17]:=
140
;

set TF[2,1]:=
140
;

set TF[2,2]:=
160
;

set TF[2,3]:=
180
;

set TF[2,4]:=
200
;

set TF[2,5]:=
180
;

set TF[2,6]:=
200
;

set TF[2,7]:=
180
;

set TF[2,8]:=
100
;

set TF[2,9]:=
140
;

set TF[2,10]:=
200
;

set TF[2,11]:=
200
;

set TF[2,12]:=
160
;

set TF[2,13]:=
100
;

set TF[2,14]:=
100
;

set TF[2,15]:=
160
;

set TF[2,16]:=
100
;

set TF[2,17]:=
200
;

set TF[3,1]:=
180
;

set TF[3,2]:=
140
;

set TF[3,3]:=
180
;

set TF[3,4]:=
200
;

set TF[3,5]:=
180
;

set TF[3,6]:=
100
;

set TF[3,7]:=
120
;

set TF[3,8]:=
100
;

set TF[3,9]:=
200
;

set TF[3,10]:=
160
;

set TF[3,11]:=
160
;

set TF[3,12]:=
200
;

set TF[3,13]:=
140
;

set TF[3,14]:=
160
;

set TF[3,15]:=
180
;

set TF[3,16]:=
140
;

set TF[3,17]:=
100
;

set TF[4,1]:=
140
;

set TF[4,2]:=
140
;

set TF[4,3]:=
100
;

set TF[4,4]:=
180
;

set TF[4,5]:=
100
;

set TF[4,6]:=
100
;

set TF[4,7]:=
200
;

set TF[4,8]:=
140
;

set TF[4,9]:=
140
;

set TF[4,10]:=
180
;

set TF[4,11]:=
140
;

set TF[4,12]:=
100
;

set TF[4,13]:=
100
;

set TF[4,14]:=
200
;

set TF[4,15]:=
140
;

set TF[4,16]:=
140
;

set TF[4,17]:=
200
;

set TF[5,1]:=
160
;

set TF[5,2]:=
200
;

set TF[5,3]:=
140
;

set TF[5,4]:=
200
;

set TF[5,5]:=
200
;

set TF[5,6]:=
200
;

set TF[5,7]:=
120
;

set TF[5,8]:=
140
;

set TF[5,9]:=
140
;

set TF[5,10]:=
180
;

set TF[5,11]:=
160
;

set TF[5,12]:=
160
;

set TF[5,13]:=
100
;

set TF[5,14]:=
200
;

set TF[5,15]:=
160
;

set TF[5,16]:=
200
;

set TF[5,17]:=
100
;

set TF[6,1]:=
C
;

set TF[6,2]:=
E
;

set TF[6,3]:=
A
;

set TF[6,4]:=
B
;

set TF[6,5]:=
E
;

set TF[6,6]:=
E
;

set TF[6,7]:=
A
;

set TF[6,8]:=
B
;

set TF[6,9]:=
A
;

set TF[6,10]:=
A
;

set TF[6,11]:=
C
;

set TF[6,12]:=
B
;

set TF[6,13]:=
A
;

set TF[6,14]:=
E
;

set TF[6,15]:=
E
;

set TF[6,16]:=
B
;

set TF[6,17]:=
C
;

set TF[7,1]:=
A
;

set TF[7,2]:=
E
;

set TF[7,3]:=
A
;

set TF[7,4]:=
C
;

set TF[7,5]:=
C
;

set TF[7,6]:=
B
;

set TF[7,7]:=
E
;

set TF[7,8]:=
B
;

set TF[7,9]:=
A
;

set TF[7,10]:=
A
;

set TF[7,11]:=
C
;

set TF[7,12]:=
A
;

set TF[7,13]:=
E
;

set TF[7,14]:=
A
;

set TF[7,15]:=
C
;

set TF[7,16]:=
B
;

set TF[7,17]:=
B
;



